1749
3
13, 12, 53, 56, 102, 36, 73, 94, 28, 113, 4, 122, 120, 85, 55, 128, 67, 108, 119, 35, 95, 6, 66, 1, 70, 58, 104, 121, 55, 63, 69, 100, 39, 128, 70, 65, 75, 35, 37, 63
5, 111, 13, 18, 110, 22, 89, 42, 76, 37, 15, 78, 118, 81, 39, 70, 82, 92, 55, 59, 25, 7, 48, 18, 93, 103, 85, 118, 16, 91, 83, 44, 64, 86, 109, 83, 122, 98, 78, 99
2, 1, 3, 3, 1, 3, 2, 3, 2, 1, 3, 1, 3, 1, 3, 2, 1, 2, 1, 2, 2, 1, 2, 2, 2, 3, 1, 3, 2, 2, 1, 1, 2, 2, 1, 3, 2, 2, 2, 3